p wcnf 109 132 133 
1 74 83 0 
1 -34 109 0 
1 -68 -24 0 
1 -36 18 0 
1 -93 -108 0 
1 13 -100 0 
1 72 39 0 
1 83 26 0 
1 106 24 0 
1 20 -45 0 
1 34 27 0 
1 -17 76 0 
1 -65 81 0 
1 -29 101 0 
1 -65 -96 0 
1 56 -89 0 
1 -69 58 0 
1 27 -73 0 
1 -97 74 0 
1 -17 37 0 
1 58 11 0 
1 26 25 0 
1 -106 84 0 
1 -17 102 0 
1 -81 -36 0 
1 -54 -16 0 
1 39 26 0 
1 -95 58 0 
1 100 81 0 
1 -30 -37 0 
1 -37 -53 0 
1 94 -51 0 
1 101 13 0 
1 31 -78 0 
1 17 -19 0 
1 -23 31 0 
1 -32 57 0 
1 75 -92 0 
1 101 -95 0 
1 14 -102 0 
1 75 -48 0 
1 -57 -30 0 
1 -7 -33 0 
1 -85 79 0 
1 48 -11 0 
1 -88 42 0 
1 18 -71 0 
1 2 63 0 
1 76 -94 0 
1 -83 -78 0 
1 19 -29 0 
1 56 60 0 
1 -106 -78 0 
1 -84 86 0 
1 -8 -43 0 
1 -83 -55 0 
1 -61 71 0 
1 44 31 0 
1 61 -18 0 
1 14 -58 0 
1 85 27 0 
1 -57 -85 0 
1 -100 -93 0 
1 52 79 0 
1 26 -63 0 
1 -17 75 0 
1 -19 36 0 
1 109 15 0 
1 -43 -104 0 
1 -14 7 0 
1 9 25 0 
1 -48 72 0 
1 -19 81 0 
1 36 -68 0 
1 -38 75 0 
1 -93 52 0 
1 45 84 0 
1 -77 6 0 
1 -95 -65 0 
1 -48 81 0 
1 -46 -89 0 
1 71 18 0 
1 36 41 0 
1 23 7 0 
1 -78 -77 0 
1 67 -72 0 
1 1 25 0 
1 -103 24 0 
1 13 -62 0 
1 -47 5 0 
1 12 1 0 
1 82 31 0 
1 -71 -2 0 
1 25 44 0 
1 69 43 0 
1 26 106 0 
1 -67 26 0 
1 98 50 0 
1 85 79 0 
1 -101 -15 0 
1 -91 -43 0 
1 -91 -1 0 
1 -16 88 0 
1 -54 86 0 
1 38 -79 0 
1 -32 11 0 
1 73 39 0 
1 -25 42 0 
1 -72 17 0 
1 -68 -46 0 
1 -35 -51 0 
1 -73 -7 0 
1 54 106 0 
1 -50 -21 0 
1 -34 -88 0 
1 10 83 0 
1 -30 -34 0 
1 -40 -23 0 
1 -90 20 0 
1 83 39 0 
1 43 -26 0 
1 -51 58 0 
1 56 -30 0 
1 -101 -44 0 
1 68 109 0 
1 109 -98 0 
1 32 -27 0 
1 65 -9 0 
1 51 68 0 
1 -67 -101 0 
1 -36 -21 0 
1 74 11 0 
